33D32945 STP File, STP Format Version 1.0

SECTION Comments
Name "edge_n10_d5_s18"
Problem "Euclidean Steiner Tree Problem"
Remark "Generated with STPGenerator. 5 dimensions."
END

SECTION Graph
Nodes 10
END

SECTION Coordinates
DDDDD 0 0.9290727782 0.9290727782 0.9290727782 0.9290727782 0.9290727782
DDDDD 1 0.9129959489 0.9129959489 0.9129959489 0.9129959489 0.9129959489
DDDDD 2 0.9238626137 0.9238626137 0.9238626137 0.9238626137 0.9238626137
DDDDD 3 0.2359872904 0.2359872904 0.2359872904 0.2359872904 0.2359872904
DDDDD 4 0.7857724450 0.7857724450 0.7857724450 0.7857724450 0.7857724450
DDDDD 5 0.9465178470 0.9465178470 0.9465178470 0.9465178470 0.9465178470
DDDDD 6 0.9674219824 0.9674219824 0.9674219824 0.9674219824 0.9674219824
DDDDD 7 0.2784534135 0.2784534135 0.2784534135 0.2784534135 0.2784534135
DDDDD 8 0.4652112594 0.4652112594 0.4652112594 0.4652112594 0.4652112594
DDDDD 9 0.4872422654 0.4872422654 0.4872422654 0.4872422654 0.4872422654
END
